Debug: configOverride contents: IsWeighted_ObjFunc add_break_callback add_generate_reports add_threshold_distance_rssv bw_multiplier capacities cover_mode coverages cust_max_id distance_matrix loc_max_id max_ite_subprob_rssv method method_post_opt method_rssv_fp method_rssv_sp output p seed service size_subproblems_rssv subarea threads time time_cplex time_subprob_rssv weights 
Loading instance...
Scanning input data...
Distance matrix dimensions: 3039 x 3039 = 9235521
Elapsed time: 0 ms

Loading weights...
Skipped line: customer weight coord_x coord_y
Loaded 3038 weights
Loaded 3038 coordinates
Total customer demand: 153240.00
Elapsed time: 8 ms

Loading capacities...
Skipped line: location capacity coord_x coord_y
Loaded 3038 capacities
Loaded 3038 coordinates
Elapsed time: 7 ms

Loading distance matrix...
Computing euclidian distances...
bw multiplier: 0.50
Loaded 9232482 distances
dists stdev: 862.93
bandwidth h: 18.49
locations: 3038
customers: 3038
p: 1000
Elapsed time: 282 ms

[INFO] Instance loaded
loc_max_id: 3038
loc_cnt: 3038
service: p3038_1000
cust_max_id: 3038
cust_cnt: 3038
unweighted obj function
p: 1000
total_demand: 153240.00


Default row names c1, c2 ... being created.
-------------------------------------------------
-------------------------------------------------
    EXACT_CPMP_BIN
-------------------------------------------------
Version identifier: 22.1.1.0 | 2022-11-28 | 9160aff4d
CPXPARAM_TimeLimit                               3600
Tried aggregator 1 time.
Presolve has eliminated 0 rows and 0 columns...
Reduced MIP has 6077 rows, 9232482 columns, and 18464964 nonzeros.
Reduced MIP has 9232482 binaries, 0 generals, 0 SOSs, and 0 indicators.
Presolve time = 81.30 sec. (16445.21 ticks)
Tried aggregator 1 time.
Presolve has eliminated 0 rows and 0 columns...
Detecting symmetries...
Reduced MIP has 6077 rows, 9232482 columns, and 18464964 nonzeros.
Reduced MIP has 9232482 binaries, 0 generals, 0 SOSs, and 0 indicators.
Presolve time = 103.61 sec. (18569.99 ticks)
Probing time = 37.71 sec. (2047.13 ticks)
Clique table members: 5939551.
MIP emphasis: balance optimality and feasibility.
MIP search method: dynamic search.
Parallel mode: deterministic, using up to 32 threads.
Root relaxation solution time = 206.99 sec. (15921.21 ticks)

        Nodes                                         Cuts/
   Node  Left     Objective  IInf  Best Integer    Best Bound    ItCnt     Gap

*     0+    0                      2787848.5373        0.0000           100.00%
*     0+    0                      2470174.9611        0.0000           100.00%
*     0+    0                      2286998.4813        0.0000           100.00%
*     0+    0                      2150294.0656        0.0000           100.00%
*     0+    0                      2023725.2499        0.0000           100.00%
*     0+    0                      1908859.3471        0.0000           100.00%
      0     0       -0.0000  2772  1908859.3471        0.0000     2821  100.00%
*     0+    0                      1844584.4263        0.0000           100.00%
*     0+    0                      1814294.5717        0.0000           100.00%
      0     0    41430.1191  3783  1814294.5717    Cuts: 1619     6063   97.72%
      0     0    64896.0842  4803  1814294.5717    Cuts: 1619     8823   96.42%
      0     0    71932.9445  4827  1814294.5717    Cuts: 1619    11079   96.04%
      0     0    74314.5007  4470  1814294.5717    Cuts: 1619    13181   95.90%
      0     0    80018.0807  4679  1814294.5717    Cuts: 1619    15755   95.59%
Detecting symmetries...
      0     0    82365.3190  4561  1814294.5717    Cuts: 1619    17837   95.46%
      0     0    83464.8005  4704  1814294.5717    Cuts: 1619    19806   95.40%
      0     0    84228.8715  4385  1814294.5717    Cuts: 1619    21759   95.36%
      0     0    84630.4881  4428  1814294.5717    Cuts: 1281    23315   95.34%
*     0+    0                       437301.8230    84630.4881            80.65%
*     0+    0                       436996.8089    84630.4881            80.63%
      0     0    84828.0909  3908   436996.8089     Cuts: 980    24548   80.59%
*     0+    0                       101260.3376    84828.0909            16.23%
      0     0  -1.00000e+75     0   101260.3376    84828.0909    24548   16.23%
      0     0    84967.2198  4112   101260.3376     Cuts: 760    25686   16.09%
      0     0    85074.0020  3701   101260.3376     Cuts: 646    26556   15.98%

Clique cuts applied:  1872
Cover cuts applied:  6379
Flow cuts applied:  635
Mixed integer rounding cuts applied:  998
Zero-half cuts applied:  2289

Root node processing (before b&c):
  Real time             = 3609.88 sec. (1098400.90 ticks)
Parallel b&c, 32 threads:
  Real time             =    0.00 sec. (0.00 ticks)
  Sync time (average)   =    0.00 sec.
  Wait time (average)   =    0.00 sec.
                          ------------
Total (root+branch&cut) = 3609.88 sec. (1098400.90 ticks)
[INFO] Saving variables cplex:
./outputs/solutions/2024-08-26_LIT_seed_200/VarsValues_cplex/test_lit_p3038_1000_CPMP_Vars_Bin_p_1000_EXACT_CPMP_BIN.txt
[INFO] Saving results cplex: 
./outputs/solutions/2024-08-26_LIT_seed_200/Results_cplex/test_lit_p3038_1000_Bin_EXACT_CPMP_BIN.csv

Final solution CPMP:
p locations: 3036 3034 3022 3018 3014 3012 2985 2981 2974 2969 2967 2965 2962 2955 2950 2943 2941 2930 2928 2926 2924 2915 2911 2899 2889 2886 2882 2880 2878 2875 2868 2865 2862 2858 2851 2845 2841 2837 2833 2827 2825 2820 2817 2816 2813 2805 2802 2799 2796 2794 2793 2790 2773 2769 2762 2759 2756 2745 2738 2733 2723 2720 2717 2713 2706 2703 2701 2698 2691 2679 2677 2673 2665 2660 2658 2650 2646 2638 2635 2634 2631 2625 2621 2614 2608 2604 2596 2592 2586 2582 2571 2570 2563 2561 2559 2555 2539 2531 2528 2527 2521 2520 2513 2510 2503 2501 2495 2494 2488 2486 2484 2482 2478 2471 2467 2450 2445 2441 2439 2434 2427 2423 2422 2420 2414 2413 2410 2403 2401 2395 2390 2388 2385 2382 2372 2370 2368 2363 2361 2358 2355 2354 2351 2350 2348 2345 2343 2340 2336 2335 2322 2320 2316 2311 2308 2300 2294 2286 2284 2281 2279 2274 2271 2266 2263 2259 2248 2242 2241 2238 2236 2225 2219 2216 2211 2209 2206 2199 2197 2193 2184 2183 2175 2169 2166 2155 2152 2146 2144 2143 2134 2126 2122 2119 2113 1030 1026 1003 1000 291 990 281 1699 981 272 976 2464 971 966 257 2457 964 962 1671 2453 960 945 932 1641 928 925 216 922 919 210 916 207 2400 907 1616 896 187 893 2380 887 876 2365 872 163 2356 863 1572 854 844 1553 841 132 1550 839 2321 828 1537 825 116 2317 824 817 814 802 2290 797 1581 88 792 1501 787 2276 783 780 767 765 2244 751 2953 1460 731 2203 710 705 1414 2195 702 2904 1411 696 1405 2180 687 2514 1021 1730 2177 684 1016 679 675 1384 1011 674 1383 1007 670 2161 668 658 654 649 648 1357 2139 646 975 1684 638 2056 2129 636 632 1341 2050 958 1667 621 1330 614 947 610 2028 607 604 1313 2092 599 1305 593 1302 923 1632 586 2407 914 205 1623 2067 574 1992 573 905 1614 568 2392 899 190 562 2764 1271 560 1978 882 545 543 878 541 2743 1250 2736 1243 1952 866 1575 2022 529 1947 525 1229 518 581 244 411 2402 909 227 218 722 890 553 1971 551 47 185 239 746 3023 37 1455 72 1490 1653 160 869 1578 664 1820 327 1036 548 1257 1966 1629 806 1515 466 129 2331 838 1619 2289 796 1505 122 289 214 1707 456 2497 1004 1713 1039 1748 758 84 418 794 120 2117 624 1333 3027 1534 41 712 3 375 486 1195 149 1567 860 186 274 441 2643 1150 1031 357 1775 20 1860 363 2233 740 1449 66 777 103 699 2901 1408 3011 25 2227 734 498 1207 754 45 80 1498 247 677 530 1239 1948 193 360 1069 3025 1532 955 246 171 1664 2111 618 2997 11 1019 1803 310 235 1728 345 1763 849 1558 512 2377 884 2298 805 131 1470 168 1586 89 1669 176 1594 2992 6 1424 1836 343 2545 1052 3000 14 1432 221 725 1434 388 61 2230 737 2939 1446 230 397 21 2932 1439 692 3004 1511 18 1436 355 1064 1773 774 1930 437 1146 1855 100 771 434 1143 146 987 278 1696 313 1113 67 2978 1485 155 1645 152 1982 489 1569 76 107 444 2076 583 2001 250 589 1298 252 931 424 1133 2095 602 527 2020 95 2435 942 158 1651 1761 268 269 2460 967 630 1339 293 300 1718 2133 640 1349 1721 1963 470 305 308 984 318 997 1706 323 364 1073 703 366 707 3019 33 2572 1079 1788 380 2212 719 1800 728 1547 54 391 1100 393 744 70 416 1125 341 1834 757 420 2255 762 425 1843 784 1603 110 819 1528 112 449 452 790 453 1871 799 1508 125 1171 127 3038 52 1545 1882 2304 811 474 2676 1183 479 404 1897 407 1900 484 830 493 833 3035 1542 496 1657 164 1919 166 506 1215 1924 2339 846 509 1218 2007 514 1932 853 516 1225 1033 1742 2535 1042 1751 1049 265 1758 1051 2549 1056 1057 1766 1059 1768 1061 1770 1074 1076 1785 2575 1082 1791 1085 1087 303 1796 2583 1090 2585 1092 1096 2591 1098 2598 1105 1814 1107 1110 2610 1117 1826 1119 1828 1122 1130 1136 1140 1849 1152 1861 1154 370 1863 1155 1864 2653 1160 1869 2656 1163 1872 1166 382 1875 1169 385 1878 1174 1177 2675 1182 1185 1189 1192 2693 1200 2696 1203 1912 1204 1211 1920 1216 432 1925 2715 1222 1931 2726 1233 2730 1237 1246 462 1955 1247 2741 1248 464 1957 1253 2748 1255 2752 1259 1968 2754 1261 1264 1973 1267 1270 1275 2771 1278 1281 2778 1285 501 1994 1287 503 1996 2781 1288 1289 1998 1291 1296 1307 2016 1310 2808 1315 1318 534 2027 1322 2819 1326 542 2035 1329 1335 2829 1336 2045 1343 2052 1346 1353 2062 1354 2063 1360 2854 1361 577 2070 1366 1368 1371 1374 2871 1378 2087 1381 2884 1391 1392 2101 1394 1395 2104 1397 1400 1417 2913 1420 1427 1442 2937 1444 1458 1461 1464 1468 1473 1475 1477 1487 2988 1495 1517 29 1522 34 1527 1531 3029 1536 63 1556 1561 1583 1590 1598 108 1601 114 1607 1612 1626 142 1635 1647 1650 1660 1674 184 1677 195 1688 1691 201 1694 1701 1702 211 1704 1710 1715 1719 1724 1733 1738 1746 261 1754 1757 1764 287 1780 1792 1808 1812 325 1818 330 1823 1824 1832 353 1846 1858 1866 1877 1889 402 1895 1903 1908 1910 1915 429 1922 442 1935 447 1940 1941 482 1975 1985 1988 2003 2010 520 2013 2030 2033 2040 554 2047 564 2057 2073 2078 2084 596 2089 2096 2098 2108 
p size: 1000
objective: 101260.337582435284276
sum (dij * xij) 
demand/capacity: 153240.000000000000000/191000
Solution is Feasible
Statistics:
Max distance: 2185.134549633042752
Min distance: 0.000000000000000
Avg distance: 33.331250027134722
Std deviation distance: 63.592383462431791


Final total elapsed time: 3689s
[INFO] Saving assignment: ./outputs/solutions/2024-08-26_LIT_seed_200/Assignments/test_lit_p3038_1000_p_1000_EXACT_CPMP_BIN.txt
[INFO] Saving results: ./outputs/solutions/2024-08-26_LIT_seed_200/test_lit_p3038_1000_results_EXACT_CPMP_BIN.csv
[INFO] Saving all results: ./outputs/solutions/test_all_results.csv
Post Optimization: null


-------------------------------------------------
Post Optimization
-------------------------------------------------
method: null
-------------------------------------------------
Time for post-optimization: -89.000000000000000s
PostOptimization constructor
p locations: 3036 3034 3022 3018 3014 3012 2985 2981 2974 2969 2967 2965 2962 2955 2950 2943 2941 2930 2928 2926 2924 2915 2911 2899 2889 2886 2882 2880 2878 2875 2868 2865 2862 2858 2851 2845 2841 2837 2833 2827 2825 2820 2817 2816 2813 2805 2802 2799 2796 2794 2793 2790 2773 2769 2762 2759 2756 2745 2738 2733 2723 2720 2717 2713 2706 2703 2701 2698 2691 2679 2677 2673 2665 2660 2658 2650 2646 2638 2635 2634 2631 2625 2621 2614 2608 2604 2596 2592 2586 2582 2571 2570 2563 2561 2559 2555 2539 2531 2528 2527 2521 2520 2513 2510 2503 2501 2495 2494 2488 2486 2484 2482 2478 2471 2467 2450 2445 2441 2439 2434 2427 2423 2422 2420 2414 2413 2410 2403 2401 2395 2390 2388 2385 2382 2372 2370 2368 2363 2361 2358 2355 2354 2351 2350 2348 2345 2343 2340 2336 2335 2322 2320 2316 2311 2308 2300 2294 2286 2284 2281 2279 2274 2271 2266 2263 2259 2248 2242 2241 2238 2236 2225 2219 2216 2211 2209 2206 2199 2197 2193 2184 2183 2175 2169 2166 2155 2152 2146 2144 2143 2134 2126 2122 2119 2113 1030 1026 1003 1000 291 990 281 1699 981 272 976 2464 971 966 257 2457 964 962 1671 2453 960 945 932 1641 928 925 216 922 919 210 916 207 2400 907 1616 896 187 893 2380 887 876 2365 872 163 2356 863 1572 854 844 1553 841 132 1550 839 2321 828 1537 825 116 2317 824 817 814 802 2290 797 1581 88 792 1501 787 2276 783 780 767 765 2244 751 2953 1460 731 2203 710 705 1414 2195 702 2904 1411 696 1405 2180 687 2514 1021 1730 2177 684 1016 679 675 1384 1011 674 1383 1007 670 2161 668 658 654 649 648 1357 2139 646 975 1684 638 2056 2129 636 632 1341 2050 958 1667 621 1330 614 947 610 2028 607 604 1313 2092 599 1305 593 1302 923 1632 586 2407 914 205 1623 2067 574 1992 573 905 1614 568 2392 899 190 562 2764 1271 560 1978 882 545 543 878 541 2743 1250 2736 1243 1952 866 1575 2022 529 1947 525 1229 518 581 244 411 2402 909 227 218 722 890 553 1971 551 47 185 239 746 3023 37 1455 72 1490 1653 160 869 1578 664 1820 327 1036 548 1257 1966 1629 806 1515 466 129 2331 838 1619 2289 796 1505 122 289 214 1707 456 2497 1004 1713 1039 1748 758 84 418 794 120 2117 624 1333 3027 1534 41 712 3 375 486 1195 149 1567 860 186 274 441 2643 1150 1031 357 1775 20 1860 363 2233 740 1449 66 777 103 699 2901 1408 3011 25 2227 734 498 1207 754 45 80 1498 247 677 530 1239 1948 193 360 1069 3025 1532 955 246 171 1664 2111 618 2997 11 1019 1803 310 235 1728 345 1763 849 1558 512 2377 884 2298 805 131 1470 168 1586 89 1669 176 1594 2992 6 1424 1836 343 2545 1052 3000 14 1432 221 725 1434 388 61 2230 737 2939 1446 230 397 21 2932 1439 692 3004 1511 18 1436 355 1064 1773 774 1930 437 1146 1855 100 771 434 1143 146 987 278 1696 313 1113 67 2978 1485 155 1645 152 1982 489 1569 76 107 444 2076 583 2001 250 589 1298 252 931 424 1133 2095 602 527 2020 95 2435 942 158 1651 1761 268 269 2460 967 630 1339 293 300 1718 2133 640 1349 1721 1963 470 305 308 984 318 997 1706 323 364 1073 703 366 707 3019 33 2572 1079 1788 380 2212 719 1800 728 1547 54 391 1100 393 744 70 416 1125 341 1834 757 420 2255 762 425 1843 784 1603 110 819 1528 112 449 452 790 453 1871 799 1508 125 1171 127 3038 52 1545 1882 2304 811 474 2676 1183 479 404 1897 407 1900 484 830 493 833 3035 1542 496 1657 164 1919 166 506 1215 1924 2339 846 509 1218 2007 514 1932 853 516 1225 1033 1742 2535 1042 1751 1049 265 1758 1051 2549 1056 1057 1766 1059 1768 1061 1770 1074 1076 1785 2575 1082 1791 1085 1087 303 1796 2583 1090 2585 1092 1096 2591 1098 2598 1105 1814 1107 1110 2610 1117 1826 1119 1828 1122 1130 1136 1140 1849 1152 1861 1154 370 1863 1155 1864 2653 1160 1869 2656 1163 1872 1166 382 1875 1169 385 1878 1174 1177 2675 1182 1185 1189 1192 2693 1200 2696 1203 1912 1204 1211 1920 1216 432 1925 2715 1222 1931 2726 1233 2730 1237 1246 462 1955 1247 2741 1248 464 1957 1253 2748 1255 2752 1259 1968 2754 1261 1264 1973 1267 1270 1275 2771 1278 1281 2778 1285 501 1994 1287 503 1996 2781 1288 1289 1998 1291 1296 1307 2016 1310 2808 1315 1318 534 2027 1322 2819 1326 542 2035 1329 1335 2829 1336 2045 1343 2052 1346 1353 2062 1354 2063 1360 2854 1361 577 2070 1366 1368 1371 1374 2871 1378 2087 1381 2884 1391 1392 2101 1394 1395 2104 1397 1400 1417 2913 1420 1427 1442 2937 1444 1458 1461 1464 1468 1473 1475 1477 1487 2988 1495 1517 29 1522 34 1527 1531 3029 1536 63 1556 1561 1583 1590 1598 108 1601 114 1607 1612 1626 142 1635 1647 1650 1660 1674 184 1677 195 1688 1691 201 1694 1701 1702 211 1704 1710 1715 1719 1724 1733 1738 1746 261 1754 1757 1764 287 1780 1792 1808 1812 325 1818 330 1823 1824 1832 353 1846 1858 1866 1877 1889 402 1895 1903 1908 1910 1915 429 1922 442 1935 447 1940 1941 482 1975 1985 1988 2003 2010 520 2013 2030 2033 2040 554 2047 564 2057 2073 2078 2084 596 2089 2096 2098 2108 
p size: 1000
objective: 101260.337582435284276
sum (dij * xij) 
demand/capacity: 153240.000000000000000/191000
Solution is Feasible
[INFO] Running post-optimization
Time limit: -89.000000000000000
Max size of the neigh: 2



Finishing post-optimization
p locations: 3036 3034 3022 3018 3014 3012 2985 2981 2974 2969 2967 2965 2962 2955 2950 2943 2941 2930 2928 2926 2924 2915 2911 2899 2889 2886 2882 2880 2878 2875 2868 2865 2862 2858 2851 2845 2841 2837 2833 2827 2825 2820 2817 2816 2813 2805 2802 2799 2796 2794 2793 2790 2773 2769 2762 2759 2756 2745 2738 2733 2723 2720 2717 2713 2706 2703 2701 2698 2691 2679 2677 2673 2665 2660 2658 2650 2646 2638 2635 2634 2631 2625 2621 2614 2608 2604 2596 2592 2586 2582 2571 2570 2563 2561 2559 2555 2539 2531 2528 2527 2521 2520 2513 2510 2503 2501 2495 2494 2488 2486 2484 2482 2478 2471 2467 2450 2445 2441 2439 2434 2427 2423 2422 2420 2414 2413 2410 2403 2401 2395 2390 2388 2385 2382 2372 2370 2368 2363 2361 2358 2355 2354 2351 2350 2348 2345 2343 2340 2336 2335 2322 2320 2316 2311 2308 2300 2294 2286 2284 2281 2279 2274 2271 2266 2263 2259 2248 2242 2241 2238 2236 2225 2219 2216 2211 2209 2206 2199 2197 2193 2184 2183 2175 2169 2166 2155 2152 2146 2144 2143 2134 2126 2122 2119 2113 1030 1026 1003 1000 291 990 281 1699 981 272 976 2464 971 966 257 2457 964 962 1671 2453 960 945 932 1641 928 925 216 922 919 210 916 207 2400 907 1616 896 187 893 2380 887 876 2365 872 163 2356 863 1572 854 844 1553 841 132 1550 839 2321 828 1537 825 116 2317 824 817 814 802 2290 797 1581 88 792 1501 787 2276 783 780 767 765 2244 751 2953 1460 731 2203 710 705 1414 2195 702 2904 1411 696 1405 2180 687 2514 1021 1730 2177 684 1016 679 675 1384 1011 674 1383 1007 670 2161 668 658 654 649 648 1357 2139 646 975 1684 638 2056 2129 636 632 1341 2050 958 1667 621 1330 614 947 610 2028 607 604 1313 2092 599 1305 593 1302 923 1632 586 2407 914 205 1623 2067 574 1992 573 905 1614 568 2392 899 190 562 2764 1271 560 1978 882 545 543 878 541 2743 1250 2736 1243 1952 866 1575 2022 529 1947 525 1229 518 581 244 411 2402 909 227 218 722 890 553 1971 551 47 185 239 746 3023 37 1455 72 1490 1653 160 869 1578 664 1820 327 1036 548 1257 1966 1629 806 1515 466 129 2331 838 1619 2289 796 1505 122 289 214 1707 456 2497 1004 1713 1039 1748 758 84 418 794 120 2117 624 1333 3027 1534 41 712 3 375 486 1195 149 1567 860 186 274 441 2643 1150 1031 357 1775 20 1860 363 2233 740 1449 66 777 103 699 2901 1408 3011 25 2227 734 498 1207 754 45 80 1498 247 677 530 1239 1948 193 360 1069 3025 1532 955 246 171 1664 2111 618 2997 11 1019 1803 310 235 1728 345 1763 849 1558 512 2377 884 2298 805 131 1470 168 1586 89 1669 176 1594 2992 6 1424 1836 343 2545 1052 3000 14 1432 221 725 1434 388 61 2230 737 2939 1446 230 397 21 2932 1439 692 3004 1511 18 1436 355 1064 1773 774 1930 437 1146 1855 100 771 434 1143 146 987 278 1696 313 1113 67 2978 1485 155 1645 152 1982 489 1569 76 107 444 2076 583 2001 250 589 1298 252 931 424 1133 2095 602 527 2020 95 2435 942 158 1651 1761 268 269 2460 967 630 1339 293 300 1718 2133 640 1349 1721 1963 470 305 308 984 318 997 1706 323 364 1073 703 366 707 3019 33 2572 1079 1788 380 2212 719 1800 728 1547 54 391 1100 393 744 70 416 1125 341 1834 757 420 2255 762 425 1843 784 1603 110 819 1528 112 449 452 790 453 1871 799 1508 125 1171 127 3038 52 1545 1882 2304 811 474 2676 1183 479 404 1897 407 1900 484 830 493 833 3035 1542 496 1657 164 1919 166 506 1215 1924 2339 846 509 1218 2007 514 1932 853 516 1225 1033 1742 2535 1042 1751 1049 265 1758 1051 2549 1056 1057 1766 1059 1768 1061 1770 1074 1076 1785 2575 1082 1791 1085 1087 303 1796 2583 1090 2585 1092 1096 2591 1098 2598 1105 1814 1107 1110 2610 1117 1826 1119 1828 1122 1130 1136 1140 1849 1152 1861 1154 370 1863 1155 1864 2653 1160 1869 2656 1163 1872 1166 382 1875 1169 385 1878 1174 1177 2675 1182 1185 1189 1192 2693 1200 2696 1203 1912 1204 1211 1920 1216 432 1925 2715 1222 1931 2726 1233 2730 1237 1246 462 1955 1247 2741 1248 464 1957 1253 2748 1255 2752 1259 1968 2754 1261 1264 1973 1267 1270 1275 2771 1278 1281 2778 1285 501 1994 1287 503 1996 2781 1288 1289 1998 1291 1296 1307 2016 1310 2808 1315 1318 534 2027 1322 2819 1326 542 2035 1329 1335 2829 1336 2045 1343 2052 1346 1353 2062 1354 2063 1360 2854 1361 577 2070 1366 1368 1371 1374 2871 1378 2087 1381 2884 1391 1392 2101 1394 1395 2104 1397 1400 1417 2913 1420 1427 1442 2937 1444 1458 1461 1464 1468 1473 1475 1477 1487 2988 1495 1517 29 1522 34 1527 1531 3029 1536 63 1556 1561 1583 1590 1598 108 1601 114 1607 1612 1626 142 1635 1647 1650 1660 1674 184 1677 195 1688 1691 201 1694 1701 1702 211 1704 1710 1715 1719 1724 1733 1738 1746 261 1754 1757 1764 287 1780 1792 1808 1812 325 1818 330 1823 1824 1832 353 1846 1858 1866 1877 1889 402 1895 1903 1908 1910 1915 429 1922 442 1935 447 1940 1941 482 1975 1985 1988 2003 2010 520 2013 2030 2033 2040 554 2047 564 2057 2073 2078 2084 596 2089 2096 2098 2108 
p size: 1000
objective: 101260.337582435284276
sum (dij * xij) 
demand/capacity: 153240.000000000000000/191000
Solution is Feasible
Solution Stats
Statistics:
Max distance: 2185.134549633042752
Min distance: 0.000000000000000
Avg distance: 33.331250027134722
Std deviation distance: 63.592383462431791


[INFO] Saving assignment: ./outputs/solutions/2024-08-26_LIT_seed_200/Assignments/test_lit_p3038_1000_p_1000_EXACT_CPMP_BIN_POSTOPT.txt
[INFO] Saving results: ./outputs/solutions/2024-08-26_LIT_seed_200/test_lit_p3038_1000_results_EXACT_CPMP_BIN_POSTOPT.csv
[INFO] Saving all results: ./outputs/solutions/test_all_results.csv
Final total elapsed time (post opt): 3689s
Elapsed time: 3689674 ms

